letting maxWeight=76
letting values=[13, 36, 38, 54, 29, 50, 40, 33, 31, 5, 26, 28, 35, 57, 34, 40, 38, 36, 55, 15, 5, 3, 20, 1, 50, 15, 46, 3, 41, 46, 12, 58, 17, 7, 19, 6, 2, 45, 42, 9, 48, 42, 39, 13, 36, 34, 54, 43, 3, 47, 18, 38, 58, 9, 51, 54, 32, 53, 49, 27, 1, 49, 17, 22, 46, 4, 15, 52, 49]
letting weights=[6, 19, 12, 10, 22, 18, 23, 28, 17, 31, 15, 3, 1, 13, 24, 4, 25, 1, 16, 14, 1, 11, 11, 18, 19, 9, 11, 31, 17, 15, 4, 23, 17, 23, 28, 9, 16, 2, 19, 14, 12, 27, 8, 18, 31, 2, 12, 21, 30, 2, 16, 31, 9, 27, 13, 3, 11, 1, 17, 4, 24, 23, 19, 27, 27, 5, 19, 24, 25]
